toybox/dimacs/toybox-2017-03-20_12-41-22.dimacs
c 1 CONFIG_HELP
c 2 CONFIG_DHCPD
c 3 CONFIG_SORT_BIG
c 4 CONFIG_START
c 5 CONFIG_SYSLOGD
c 6 CONFIG_TCPSVD
c 7 CONFIG_TAIL
c 8 CONFIG_ID_Z
c 9 CONFIG_TOYBOX_PRLIMIT
c 10 CONFIG_UNSHARE
c 11 CONFIG_EGREP
c 12 CONFIG_TOP_COMMON
c 13 CONFIG_ID
c 14 CONFIG_RESTORECON
c 15 CONFIG_HELP_EXTRAS
c 16 CONFIG_BOOTCHARTD
c 17 CONFIG_KILL
c 18 CONFIG_TOYBOX_ICONV
c 19 CONFIG_LOG
c 20 CONFIG_GZIP
c 21 CONFIG_MKE2FS_EXTENDED
c 22 CONFIG_CP_PRESERVE
c 23 CONFIG_TOYBOX_FIFREEZE
c 24 CONFIG_LS_COLOR
c 25 CONFIG_TOYBOX_MUSL_NOMMU_IS_BROKEN
c 26 CONFIG_MKE2FS_GEN
c 27 CONFIG_PGREP
c 28 CONFIG_TOP
c 29 CONFIG_SHA256SUM
c 30 CONFIG_TOYBOX_SHADOW
c 31 CONFIG_LSPCI
c 32 CONFIG_TOYBOX_FORK
c 33 CONFIG_MKFIFO_Z
c 34 CONFIG_GUNZIP
c 35 CONFIG_SHA224SUM
c 36 CONFIG_TOYBOX_UID_USR
c 37 CONFIG_TOYBOX_CONTAINER
c 38 CONFIG_NETCAT_LISTEN
c 39 CONFIG_MKE2FS_LABEL
c 40 CONFIG_SEQ
c 41 CONFIG_NSENTER
c 42 CONFIG_SORT_FLOAT
c 43 CONFIG_DECOMPRESS
c 44 CONFIG_SU
c 45 CONFIG_SORT
c 46 CONFIG_CD
c 47 CONFIG_TIMEOUT
c 48 CONFIG_LOGGER
c 49 CONFIG_SETPROP
c 50 CONFIG_PASSWD_SAD
c 51 CONFIG_GETPROP
c 52 CONFIG_UPTIME
c 53 CONFIG_CRONTAB
c 54 CONFIG_MKDIR
c 55 CONFIG_TOYBOX
c 56 CONFIG_IOTOP
c 57 CONFIG_SLEEP
c 58 CONFIG_TOYBOX_UTMPX
c 59 CONFIG_PGKILL_COMMON
c 60 CONFIG_TOYBOX_FALLOCATE
c 61 CONFIG_MDEV
c 62 CONFIG_KILLALL5
c 63 CONFIG_TOYBOX_HELP_DASHDASH
c 64 __Root__
c 65 CONFIG_LS
c 66 CONFIG_CHCON
c 67 CONFIG_TOYBOX_LIBCRYPTO
c 68 CONFIG_W
c 69 CONFIG_TIME
c 70 CONFIG_KLOGD_SOURCE_RING_BUFFER
c 71 CONFIG_SULOGIN
c 72 CONFIG_FGREP
c 73 CONFIG_SENDEVENT
c 74 CONFIG_MDEV_CONF
c 75 CONFIG_NBD_CLIENT
c 76 CONFIG_LOAD_POLICY
c 77 CONFIG_MKDIR_Z
c 78 CONFIG_SLEEP_FLOAT
c 79 CONFIG_TOYBOX_UID_SYS
c 80 CONFIG_SETENFORCE
c 81 CONFIG_LOGIN
c 82 CONFIG_ULIMIT
c 83 CONFIG_FSFREEZE
c 84 CONFIG_GREP
c 85 CONFIG_MKNOD_Z
c 86 CONFIG_XARGS_PEDANTIC
c 87 CONFIG_WHO
c 88 CONFIG_PKILL
c 89 CONFIG_CP
c 90 CONFIG_TAIL_SEEK
c 91 CONFIG_RUNCON
c 92 CONFIG_LSPCI_TEXT
c 93 CONFIG_TOYBOX_LSM_NONE
c 94 CONFIG_XARGS
c 95 CONFIG_CAT
c 96 CONFIG_TOYBOX_SELINUX
c 97 CONFIG_KLOGD
c 98 CONFIG_OPENVT
c 99 CONFIG_MKE2FS
c 100 CONFIG_GZIP_D
c 101 CONFIG_ICONV
c 102 CONFIG_GETENFORCE
c 103 CONFIG_TOYBOX_FLOAT
c 104 CONFIG_TOYBOX_HELP
c 105 CONFIG_MKNOD
c 106 CONFIG_PASSWD
c 107 CONFIG_FALLOCATE
c 108 CONFIG_ZCAT
c 109 CONFIG_EXIT
c 110 CONFIG_NETCAT
c 111 CONFIG_SHA384SUM
c 112 CONFIG_MKFIFO
c 113 CONFIG_TOYBOX_ON_ANDROID
c 114 CONFIG_TOYBOX_SMACK
c 115 CONFIG_MKE2FS_JOURNAL
c 116 CONFIG_SHA512SUM
c 117 CONFIG_CAT_V
c 118 CONFIG_DEBUG_DHCP
c 119 CONFIG_COMPRESS
c 120 CONFIG_STOP
p cnf 120 235
64 0
64 -99 0
64 -26 0
64 -115 0
64 -9 0
64 -12 0
64 -56 0
64 -34 0
64 -43 0
64 -40 0
64 -103 0
64 -54 0
64 -77 0
64 -93 0
64 -98 0
64 -32 0
64 -51 0
64 -96 0
64 -116 0
64 -67 0
64 -89 0
64 -22 0
64 -73 0
64 -113 0
64 -104 0
64 -1 0
64 -57 0
64 -78 0
64 -82 0
64 -20 0
64 -100 0
64 -114 0
64 -15 0
64 -74 0
64 -61 0
64 -83 0
64 -23 0
64 -16 0
64 -101 0
64 -18 0
64 -29 0
64 -11 0
64 -84 0
64 -46 0
64 -65 0
64 -24 0
64 -30 0
64 -81 0
64 -48 0
64 -5 0
64 -108 0
64 -39 0
64 -91 0
64 -35 0
64 -36 0
64 -2 0
64 -118 0
64 -59 0
64 -52 0
64 -58 0
64 -106 0
64 -112 0
64 -33 0
64 -44 0
64 -80 0
64 -68 0
64 -14 0
64 -110 0
64 -38 0
64 -71 0
64 -25 0
64 -6 0
64 -27 0
64 -75 0
64 -8 0
64 -49 0
64 -76 0
64 -79 0
64 -41 0
64 -37 0
64 -119 0
64 -85 0
64 -105 0
64 -60 0
64 -55 0
64 -107 0
64 -117 0
64 -95 0
64 -109 0
64 -4 0
64 -72 0
64 -66 0
64 -42 0
64 -88 0
64 -92 0
64 -31 0
64 -97 0
64 -70 0
64 -87 0
64 -69 0
64 -94 0
64 -86 0
64 -3 0
64 -13 0
64 -45 0
64 -17 0
64 -62 0
64 -63 0
64 -120 0
64 -21 0
64 -19 0
64 -50 0
64 -28 0
64 -111 0
64 -7 0
64 -90 0
64 -47 0
64 -102 0
64 -53 0
64 -10 0
99 -26 0
99 -115 0
-9 0
12 -56 0
-34 43 0
-40 103 0
-54 77 93 0
-98 32 0
-51 96 0
-116 67 0
89 -22 0
-73 113 0
54 -77 0
104 -1 0
-103 -57 78 0
9 -82 0
20 -100 0
-93 -114 0
-15 1 0
-74 61 0
-83 23 0
32 -16 0
-101 18 0
-29 67 0
11 -84 0
-46 0
65 -24 0
30 -81 0
-48 5 0
43 -108 0
99 -39 0
-91 96 0
-35 67 0
36 0
2 -118 0
59 0
-113 0
-52 58 0
30 -106 0
112 -33 0
-77 -93 0
30 -44 0
96 -80 0
-68 58 0
96 -14 0
110 -38 0
30 -71 0
-32 -25 0
32 -6 0
-27 59 0
-51 113 0
32 -75 0
-8 -93 0
43 -100 0
-49 113 0
-76 96 0
79 0
23 0
-41 37 0
-20 119 0
-85 105 0
60 0
55 0
60 -107 0
-117 95 0
-109 0
-4 113 0
-72 84 0
96 -66 0
-51 96 113 0
103 -42 0
18 0
103 -78 0
-88 59 0
-92 31 0
97 -70 0
96 93 114 0
-87 58 0
103 -69 0
94 -86 0
3 -42 0
-8 13 0
-85 -93 0
55 -15 0
-37 0
8 -13 93 0
-3 45 0
-96 -114 0
-11 84 0
-33 -93 0
30 0
17 -62 0
104 -63 0
58 0
113 -120 0
57 -78 0
-21 99 0
113 -19 0
32 25 0
106 -50 0
12 -28 0
-111 67 0
85 -105 93 0
7 -90 0
55 -15 1 0
12 0
-96 -93 0
-103 -3 42 0
-47 103 0
-112 33 93 0
96 -102 0
32 -53 0
-10 37 0
72 -84 0
-20 -43 100 0
